WARNING: for repeatability, setting FPU to use double precision
============================[ Problem Statistics ]=============================
|                                                                             |
|  Number of variables:          8399                                         |
|  Number of clauses:          113570                                         |
|  Parse time:                   0.03 s                                       |
|  Eliminated clauses:           0.02 Mb                                      |
|  Simplification time:          0.03 s                                       |
|                                                                             |
============================[ Search Statistics ]==============================
| Conflicts |          ORIGINAL         |          LEARNT          | Progress |
|           |    Vars  Clauses Literals |    Limit  Clauses Lit/Cl |          |
===============================================================================
|       100 |    1020     6820    20158 |     2500      100     18 | 69.151 % |
|       250 |    1020     6820    20158 |     2750      250     22 | 69.151 % |
|       475 |    1020     6820    20158 |     3025      475     21 | 69.151 % |
===============================================================================
restarts              : 6
conflicts             : 680            (11196 /sec)
decisions             : 2925           (0.00 % random) (48160 /sec)
propagations          : 33085          (544744 /sec)
conflict literals     : 14461          (6.04 % deleted)
Memory used           : 28.00 MB
CPU time              : 0.060735 s

SATISFIABLE
